\ENCODING=ISO-8859-1
\Problem name: IloCplex

Minimize
 obj1: 999999 x_0_0_0 + 13 x_0_0_1 + 10 x_0_0_2 + 10.1980390271856 x_0_0_3
       + 12.1655250605964 x_0_0_4 + 15 x_0_0_5 + 15.1327459504216 x_0_0_6
       + 15.8113883008419 x_0_0_7 + 17.1172427686237 x_0_0_8
       + 17.7200451466693 x_0_0_9 + 20 x_0_0_10 + 20.6155281280883 x_0_0_11
       + 13 x_0_1_0 + 999999 x_0_1_1 + 5.3851648071345 x_0_1_2
       + 3.60555127546399 x_0_1_3 + 3 x_0_1_4 + 5.8309518948453 x_0_1_5
       + 4.24264068711928 x_0_1_6 + 3 x_0_1_7 + 5.8309518948453 x_0_1_8
       + 5 x_0_1_9 + 9.4339811320566 x_0_1_10 + 8 x_0_1_11 + 10 x_0_2_0
       + 5.3851648071345 x_0_2_1 + 999999 x_0_2_2 + 2 x_0_2_3
       + 2.82842712474619 x_0_2_4 + 5 x_0_2_5 + 5.3851648071345 x_0_2_6
       + 7.07106781186548 x_0_2_7 + 7.28010988928052 x_0_2_8
       + 8.60232526704263 x_0_2_9 + 10 x_0_2_10 + 11.1803398874989 x_0_2_11
       + 10.1980390271856 x_0_3_0 + 3.60555127546399 x_0_3_1 + 2 x_0_3_2
       + 999999 x_0_3_3 + 2 x_0_3_4 + 5.3851648071345 x_0_3_5 + 5 x_0_3_6
       + 5.8309518948453 x_0_3_7 + 7 x_0_3_8 + 7.61577310586391 x_0_3_9
       + 10.1980390271856 x_0_3_10 + 10.4403065089106 x_0_3_11
       + 12.1655250605964 x_0_4_0 + 3 x_0_4_1 + 2.82842712474619 x_0_4_2
       + 2 x_0_4_3 + 999999 x_0_4_4 + 3.60555127546399 x_0_4_5 + 3 x_0_4_6
       + 4.24264068711928 x_0_4_7 + 5 x_0_4_8 + 5.8309518948453 x_0_4_9
       + 8.24621125123532 x_0_4_10 + 8.54400374531753 x_0_4_11 + 15 x_0_5_0
       + 5.8309518948453 x_0_5_1 + 5 x_0_5_2 + 5.3851648071345 x_0_5_3
       + 3.60555127546399 x_0_5_4 + 999999 x_0_5_5 + 2 x_0_5_6 + 5 x_0_5_7
       + 2.82842712474619 x_0_5_8 + 5.3851648071345 x_0_5_9 + 5 x_0_5_10
       + 7.07106781186548 x_0_5_11 + 15.1327459504216 x_0_6_0
       + 4.24264068711928 x_0_6_1 + 5.3851648071345 x_0_6_2 + 5 x_0_6_3
       + 3 x_0_6_4 + 2 x_0_6_5 + 999999 x_0_6_6 + 3 x_0_6_7 + 2 x_0_6_8
       + 3.60555127546399 x_0_6_9 + 5.3851648071345 x_0_6_10
       + 5.8309518948453 x_0_6_11 + 15.8113883008419 x_0_7_0 + 3 x_0_7_1
       + 7.07106781186548 x_0_7_2 + 5.8309518948453 x_0_7_3
       + 4.24264068711928 x_0_7_4 + 5 x_0_7_5 + 3 x_0_7_6 + 999999 x_0_7_7
       + 3.60555127546399 x_0_7_8 + 2 x_0_7_9 + 7.07106781186548 x_0_7_10
       + 5 x_0_7_11 + 17.1172427686237 x_0_8_0 + 5.8309518948453 x_0_8_1
       + 7.28010988928052 x_0_8_2 + 7 x_0_8_3 + 5 x_0_8_4
       + 2.82842712474619 x_0_8_5 + 2 x_0_8_6 + 3.60555127546399 x_0_8_7
       + 999999 x_0_8_8 + 3 x_0_8_9 + 3.60555127546399 x_0_8_10
       + 4.24264068711928 x_0_8_11 + 17.7200451466693 x_0_9_0 + 5 x_0_9_1
       + 8.60232526704263 x_0_9_2 + 7.61577310586391 x_0_9_3
       + 5.8309518948453 x_0_9_4 + 5.3851648071345 x_0_9_5
       + 3.60555127546399 x_0_9_6 + 2 x_0_9_7 + 3 x_0_9_8 + 999999 x_0_9_9
       + 5.8309518948453 x_0_9_10 + 3 x_0_9_11 + 20 x_0_10_0
       + 9.4339811320566 x_0_10_1 + 10 x_0_10_2 + 10.1980390271856 x_0_10_3
       + 8.24621125123532 x_0_10_4 + 5 x_0_10_5 + 5.3851648071345 x_0_10_6
       + 7.07106781186548 x_0_10_7 + 3.60555127546399 x_0_10_8
       + 5.8309518948453 x_0_10_9 + 999999 x_0_10_10 + 5 x_0_10_11
       + 20.6155281280883 x_0_11_0 + 8 x_0_11_1 + 11.1803398874989 x_0_11_2
       + 10.4403065089106 x_0_11_3 + 8.54400374531753 x_0_11_4
       + 7.07106781186548 x_0_11_5 + 5.8309518948453 x_0_11_6 + 5 x_0_11_7
       + 4.24264068711928 x_0_11_8 + 3 x_0_11_9 + 5 x_0_11_10
       + 999999 x_0_11_11 + 20
Subject To
 alguemSaiDoCliente(1)#0:        z_0_1 + y_0_1  = 1
 alguemSaiDoCliente(2)#1:        z_0_2 + y_0_2  = 1
 alguemSaiDoCliente(3)#2:        z_0_3 + y_0_3  = 1
 alguemSaiDoCliente(4)#3:        z_0_4 + y_0_4  = 1
 alguemSaiDoCliente(5)#4:        z_0_5 + y_0_5  = 1
 alguemSaiDoCliente(6)#5:        z_0_6 + y_0_6  = 1
 alguemSaiDoCliente(7)#6:        z_0_7 + y_0_7  = 1
 alguemSaiDoCliente(8)#7:        z_0_8 + y_0_8  = 1
 alguemSaiDoCliente(9)#8:        z_0_9 + y_0_9  = 1
 alguemSaiDoCliente(10)#9:       z_0_10 + y_0_10  = 1
 alguemSaiDoCliente(11)#10:      z_0_11 + y_0_11  = 1
 veiculo_origin_0#11:            z_0_1 + z_0_2 + z_0_3 + z_0_4 + z_0_5 + z_0_6
                                 + z_0_7 + z_0_8 + z_0_9 + z_0_10 + z_0_11
                                 + z_0_0 <= 12
 chegadaNoCliente_1_peloVehicle_0#12: x_0_0_1 + x_0_2_1 + x_0_3_1 + x_0_4_1
                                 + x_0_5_1 + x_0_6_1 + x_0_7_1 + x_0_8_1
                                 + x_0_9_1 + x_0_10_1 + x_0_11_1  = 1
 chegadaNoCliente_2_peloVehicle_0#13: x_0_0_2 + x_0_1_2 + x_0_3_2 + x_0_4_2
                                 + x_0_5_2 + x_0_6_2 + x_0_7_2 + x_0_8_2
                                 + x_0_9_2 + x_0_10_2 + x_0_11_2  = 1
 chegadaNoCliente_3_peloVehicle_0#14: x_0_0_3 + x_0_1_3 + x_0_2_3 + x_0_4_3
                                 + x_0_5_3 + x_0_6_3 + x_0_7_3 + x_0_8_3
                                 + x_0_9_3 + x_0_10_3 + x_0_11_3  = 1
 chegadaNoCliente_4_peloVehicle_0#15: x_0_0_4 + x_0_1_4 + x_0_2_4 + x_0_3_4
                                 + x_0_5_4 + x_0_6_4 + x_0_7_4 + x_0_8_4
                                 + x_0_9_4 + x_0_10_4 + x_0_11_4  = 1
 chegadaNoCliente_5_peloVehicle_0#16: x_0_0_5 + x_0_1_5 + x_0_2_5 + x_0_3_5
                                 + x_0_4_5 + x_0_6_5 + x_0_7_5 + x_0_8_5
                                 + x_0_9_5 + x_0_10_5 + x_0_11_5  = 1
 chegadaNoCliente_6_peloVehicle_0#17: x_0_0_6 + x_0_1_6 + x_0_2_6 + x_0_3_6
                                 + x_0_4_6 + x_0_5_6 + x_0_7_6 + x_0_8_6
                                 + x_0_9_6 + x_0_10_6 + x_0_11_6  = 1
 chegadaNoCliente_7_peloVehicle_0#18: x_0_0_7 + x_0_1_7 + x_0_2_7 + x_0_3_7
                                 + x_0_4_7 + x_0_5_7 + x_0_6_7 + x_0_8_7
                                 + x_0_9_7 + x_0_10_7 + x_0_11_7  = 1
 chegadaNoCliente_8_peloVehicle_0#19: x_0_0_8 + x_0_1_8 + x_0_2_8 + x_0_3_8
                                 + x_0_4_8 + x_0_5_8 + x_0_6_8 + x_0_7_8
                                 + x_0_9_8 + x_0_10_8 + x_0_11_8  = 1
 chegadaNoCliente_9_peloVehicle_0#20: x_0_0_9 + x_0_1_9 + x_0_2_9 + x_0_3_9
                                 + x_0_4_9 + x_0_5_9 + x_0_6_9 + x_0_7_9
                                 + x_0_8_9 + x_0_10_9 + x_0_11_9  = 1
 chegadaNoCliente_10_peloVehicle_0#21: x_0_0_10 + x_0_1_10 + x_0_2_10
                                 + x_0_3_10 + x_0_4_10 + x_0_5_10 + x_0_6_10
                                 + x_0_7_10 + x_0_8_10 + x_0_9_10 + x_0_11_10
                                  = 1
 chegadaNoCliente_11_peloVehicle_0#22: x_0_0_11 + x_0_1_11 + x_0_2_11
                                 + x_0_3_11 + x_0_4_11 + x_0_5_11 + x_0_6_11
                                 + x_0_7_11 + x_0_8_11 + x_0_9_11 + x_0_10_11
                                  = 1
 saidaDoCliente_0_peloVehicle_0#23: x_0_0_1 + x_0_0_2 + x_0_0_3 + x_0_0_4
                                 + x_0_0_5 + x_0_0_6 + x_0_0_7 + x_0_0_8
                                 + x_0_0_9 + x_0_0_10 + x_0_0_11 - z_0_0  = 0
 saidaDoCliente_1_peloVehicle_0#24: x_0_1_2 + x_0_1_3 + x_0_1_4 + x_0_1_5
                                 + x_0_1_6 + x_0_1_7 + x_0_1_8 + x_0_1_9
                                 + x_0_1_10 + x_0_1_11 - z_0_1  = 0
 saidaDoCliente_2_peloVehicle_0#25: x_0_2_1 + x_0_2_3 + x_0_2_4 + x_0_2_5
                                 + x_0_2_6 + x_0_2_7 + x_0_2_8 + x_0_2_9
                                 + x_0_2_10 + x_0_2_11 - z_0_2  = 0
 saidaDoCliente_3_peloVehicle_0#26: x_0_3_1 + x_0_3_2 + x_0_3_4 + x_0_3_5
                                 + x_0_3_6 + x_0_3_7 + x_0_3_8 + x_0_3_9
                                 + x_0_3_10 + x_0_3_11 - z_0_3  = 0
 saidaDoCliente_4_peloVehicle_0#27: x_0_4_1 + x_0_4_2 + x_0_4_3 + x_0_4_5
                                 + x_0_4_6 + x_0_4_7 + x_0_4_8 + x_0_4_9
                                 + x_0_4_10 + x_0_4_11 - z_0_4  = 0
 saidaDoCliente_5_peloVehicle_0#28: x_0_5_1 + x_0_5_2 + x_0_5_3 + x_0_5_4
                                 + x_0_5_6 + x_0_5_7 + x_0_5_8 + x_0_5_9
                                 + x_0_5_10 + x_0_5_11 - z_0_5  = 0
 saidaDoCliente_6_peloVehicle_0#29: x_0_6_1 + x_0_6_2 + x_0_6_3 + x_0_6_4
                                 + x_0_6_5 + x_0_6_7 + x_0_6_8 + x_0_6_9
                                 + x_0_6_10 + x_0_6_11 - z_0_6  = 0
 saidaDoCliente_7_peloVehicle_0#30: x_0_7_1 + x_0_7_2 + x_0_7_3 + x_0_7_4
                                 + x_0_7_5 + x_0_7_6 + x_0_7_8 + x_0_7_9
                                 + x_0_7_10 + x_0_7_11 - z_0_7  = 0
 saidaDoCliente_8_peloVehicle_0#31: x_0_8_1 + x_0_8_2 + x_0_8_3 + x_0_8_4
                                 + x_0_8_5 + x_0_8_6 + x_0_8_7 + x_0_8_9
                                 + x_0_8_10 + x_0_8_11 - z_0_8  = 0
 saidaDoCliente_9_peloVehicle_0#32: x_0_9_1 + x_0_9_2 + x_0_9_3 + x_0_9_4
                                 + x_0_9_5 + x_0_9_6 + x_0_9_7 + x_0_9_8
                                 + x_0_9_10 + x_0_9_11 - z_0_9  = 0
 saidaDoCliente_10_peloVehicle_0#33: x_0_10_1 + x_0_10_2 + x_0_10_3 + x_0_10_4
                                 + x_0_10_5 + x_0_10_6 + x_0_10_7 + x_0_10_8
                                 + x_0_10_9 + x_0_10_11 - z_0_10  = 0
 saidaDoCliente_11_peloVehicle_0#34: x_0_11_1 + x_0_11_2 + x_0_11_3 + x_0_11_4
                                 + x_0_11_5 + x_0_11_6 + x_0_11_7 + x_0_11_8
                                 + x_0_11_9 + x_0_11_10 - z_0_11  = 0
 veiculo_0_utilizado#35:         x_0_0_0 + x_0_0_1 + x_0_0_2 + x_0_0_3
                                 + x_0_0_4 + x_0_0_5 + x_0_0_6 + x_0_0_7
                                 + x_0_0_8 + x_0_0_9 + x_0_0_10 + x_0_0_11
                                 + x_0_1_0 + x_0_1_1 + x_0_1_2 + x_0_1_3
                                 + x_0_1_4 + x_0_1_5 + x_0_1_6 + x_0_1_7
                                 + x_0_1_8 + x_0_1_9 + x_0_1_10 + x_0_1_11
                                 + x_0_2_0 + x_0_2_1 + x_0_2_2 + x_0_2_3
                                 + x_0_2_4 + x_0_2_5 + x_0_2_6 + x_0_2_7
                                 + x_0_2_8 + x_0_2_9 + x_0_2_10 + x_0_2_11
                                 + x_0_3_0 + x_0_3_1 + x_0_3_2 + x_0_3_3
                                 + x_0_3_4 + x_0_3_5 + x_0_3_6 + x_0_3_7
                                 + x_0_3_8 + x_0_3_9 + x_0_3_10 + x_0_3_11
                                 + x_0_4_0 + x_0_4_1 + x_0_4_2 + x_0_4_3
                                 + x_0_4_4 + x_0_4_5 + x_0_4_6 + x_0_4_7
                                 + x_0_4_8 + x_0_4_9 + x_0_4_10 + x_0_4_11
                                 + x_0_5_0 + x_0_5_1 + x_0_5_2 + x_0_5_3
                                 + x_0_5_4 + x_0_5_5 + x_0_5_6 + x_0_5_7
                                 + x_0_5_8 + x_0_5_9 + x_0_5_10 + x_0_5_11
                                 + x_0_6_0 + x_0_6_1 + x_0_6_2 + x_0_6_3
                                 + x_0_6_4 + x_0_6_5 + x_0_6_6 + x_0_6_7
                                 + x_0_6_8 + x_0_6_9 + x_0_6_10 + x_0_6_11
                                 + x_0_7_0 + x_0_7_1 + x_0_7_2 + x_0_7_3
                                 + x_0_7_4 + x_0_7_5 + x_0_7_6 + x_0_7_7
                                 + x_0_7_8 + x_0_7_9 + x_0_7_10 + x_0_7_11
                                 + x_0_8_0 + x_0_8_1 + x_0_8_2 + x_0_8_3
                                 + x_0_8_4 + x_0_8_5 + x_0_8_6 + x_0_8_7
                                 + x_0_8_8 + x_0_8_9 + x_0_8_10 + x_0_8_11
                                 + x_0_9_0 + x_0_9_1 + x_0_9_2 + x_0_9_3
                                 + x_0_9_4 + x_0_9_5 + x_0_9_6 + x_0_9_7
                                 + x_0_9_8 + x_0_9_9 + x_0_9_10 + x_0_9_11
                                 + x_0_10_0 + x_0_10_1 + x_0_10_2 + x_0_10_3
                                 + x_0_10_4 + x_0_10_5 + x_0_10_6 + x_0_10_7
                                 + x_0_10_8 + x_0_10_9 + x_0_10_10 + x_0_10_11
                                 + x_0_11_0 + x_0_11_1 + x_0_11_2 + x_0_11_3
                                 + x_0_11_4 + x_0_11_5 + x_0_11_6 + x_0_11_7
                                 + x_0_11_8 + x_0_11_9 + x_0_11_10 + x_0_11_11
                                 <= 12
 saida_Deposito#36:              x_0_0_1 + x_0_0_2 + x_0_0_3 + x_0_0_4
                                 + x_0_0_5 + x_0_0_6 + x_0_0_7 + x_0_0_8
                                 + x_0_0_9 + x_0_0_10 + x_0_0_11  = 1
 saida_Deposito2#37:             z_0_0  = 1
 retorno_Deposito#38:            x_0_1_0 + x_0_2_0 + x_0_3_0 + x_0_4_0
                                 + x_0_5_0 + x_0_6_0 + x_0_7_0 + x_0_8_0
                                 + x_0_9_0 + x_0_10_0 + x_0_11_0  = 0
 retorno_Deposito2#39:            = 0
 SumDrivers#40:                  >= 0
 GETOUT_0_0_1#41:                - 200 x_0_0_1 - u_0_1 + u_0_0 >= -200
 GETOUT_0_0_2#42:                - 200 x_0_0_2 + u_0_0 - u_0_2 >= -200
 GETOUT_0_0_3#43:                - 200 x_0_0_3 + u_0_0 - u_0_3 >= -200
 GETOUT_0_0_4#44:                - 200 x_0_0_4 + u_0_0 - u_0_4 >= -200
 GETOUT_0_0_5#45:                - 200 x_0_0_5 + u_0_0 - u_0_5 >= -200
 GETOUT_0_0_6#46:                - 200 x_0_0_6 + u_0_0 - u_0_6 >= -200
 GETOUT_0_0_7#47:                - 200 x_0_0_7 + u_0_0 - u_0_7 >= -200
 GETOUT_0_0_8#48:                - 200 x_0_0_8 + u_0_0 - u_0_8 >= -200
 GETOUT_0_0_9#49:                - 200 x_0_0_9 + u_0_0 - u_0_9 >= -200
 GETOUT_0_0_10#50:               - 200 x_0_0_10 + u_0_0 - u_0_10 >= -200
 GETOUT_0_0_11#51:               - 200 x_0_0_11 + u_0_0 - u_0_11 >= -200
 GETOUT_0_1_0#52:                - 200 x_0_1_0 + u_0_1 - u_0_0 >= -190
 GETOUT_0_1_2#53:                - 200 x_0_1_2 + u_0_1 - u_0_2 >= -190
 GETOUT_0_1_3#54:                - 200 x_0_1_3 + u_0_1 - u_0_3 >= -190
 GETOUT_0_1_4#55:                - 200 x_0_1_4 + u_0_1 - u_0_4 >= -190
 GETOUT_0_1_5#56:                - 200 x_0_1_5 + u_0_1 - u_0_5 >= -190
 GETOUT_0_1_6#57:                - 200 x_0_1_6 + u_0_1 - u_0_6 >= -190
 GETOUT_0_1_7#58:                - 200 x_0_1_7 + u_0_1 - u_0_7 >= -190
 GETOUT_0_1_8#59:                - 200 x_0_1_8 + u_0_1 - u_0_8 >= -190
 GETOUT_0_1_9#60:                - 200 x_0_1_9 + u_0_1 - u_0_9 >= -190
 GETOUT_0_1_10#61:               - 200 x_0_1_10 + u_0_1 - u_0_10 >= -190
 GETOUT_0_1_11#62:               - 200 x_0_1_11 + u_0_1 - u_0_11 >= -190
 GETOUT_0_2_0#63:                - 200 x_0_2_0 - u_0_0 + u_0_2 >= -190
 GETOUT_0_2_1#64:                - 200 x_0_2_1 - u_0_1 + u_0_2 >= -190
 GETOUT_0_2_3#65:                - 200 x_0_2_3 + u_0_2 - u_0_3 >= -190
 GETOUT_0_2_4#66:                - 200 x_0_2_4 + u_0_2 - u_0_4 >= -190
 GETOUT_0_2_5#67:                - 200 x_0_2_5 + u_0_2 - u_0_5 >= -190
 GETOUT_0_2_6#68:                - 200 x_0_2_6 + u_0_2 - u_0_6 >= -190
 GETOUT_0_2_7#69:                - 200 x_0_2_7 + u_0_2 - u_0_7 >= -190
 GETOUT_0_2_8#70:                - 200 x_0_2_8 + u_0_2 - u_0_8 >= -190
 GETOUT_0_2_9#71:                - 200 x_0_2_9 + u_0_2 - u_0_9 >= -190
 GETOUT_0_2_10#72:               - 200 x_0_2_10 + u_0_2 - u_0_10 >= -190
 GETOUT_0_2_11#73:               - 200 x_0_2_11 + u_0_2 - u_0_11 >= -190
 GETOUT_0_3_0#74:                - 200 x_0_3_0 - u_0_0 + u_0_3 >= -180
 GETOUT_0_3_1#75:                - 200 x_0_3_1 - u_0_1 + u_0_3 >= -180
 GETOUT_0_3_2#76:                - 200 x_0_3_2 - u_0_2 + u_0_3 >= -180
 GETOUT_0_3_4#77:                - 200 x_0_3_4 + u_0_3 - u_0_4 >= -180
 GETOUT_0_3_5#78:                - 200 x_0_3_5 + u_0_3 - u_0_5 >= -180
 GETOUT_0_3_6#79:                - 200 x_0_3_6 + u_0_3 - u_0_6 >= -180
 GETOUT_0_3_7#80:                - 200 x_0_3_7 + u_0_3 - u_0_7 >= -180
 GETOUT_0_3_8#81:                - 200 x_0_3_8 + u_0_3 - u_0_8 >= -180
 GETOUT_0_3_9#82:                - 200 x_0_3_9 + u_0_3 - u_0_9 >= -180
 GETOUT_0_3_10#83:               - 200 x_0_3_10 + u_0_3 - u_0_10 >= -180
 GETOUT_0_3_11#84:               - 200 x_0_3_11 + u_0_3 - u_0_11 >= -180
 GETOUT_0_4_0#85:                - 200 x_0_4_0 - u_0_0 + u_0_4 >= -180
 GETOUT_0_4_1#86:                - 200 x_0_4_1 - u_0_1 + u_0_4 >= -180
 GETOUT_0_4_2#87:                - 200 x_0_4_2 - u_0_2 + u_0_4 >= -180
 GETOUT_0_4_3#88:                - 200 x_0_4_3 - u_0_3 + u_0_4 >= -180
 GETOUT_0_4_5#89:                - 200 x_0_4_5 + u_0_4 - u_0_5 >= -180
 GETOUT_0_4_6#90:                - 200 x_0_4_6 + u_0_4 - u_0_6 >= -180
 GETOUT_0_4_7#91:                - 200 x_0_4_7 + u_0_4 - u_0_7 >= -180
 GETOUT_0_4_8#92:                - 200 x_0_4_8 + u_0_4 - u_0_8 >= -180
 GETOUT_0_4_9#93:                - 200 x_0_4_9 + u_0_4 - u_0_9 >= -180
 GETOUT_0_4_10#94:               - 200 x_0_4_10 + u_0_4 - u_0_10 >= -180
 GETOUT_0_4_11#95:               - 200 x_0_4_11 + u_0_4 - u_0_11 >= -180
 GETOUT_0_5_0#96:                - 200 x_0_5_0 - u_0_0 + u_0_5 >= -190
 GETOUT_0_5_1#97:                - 200 x_0_5_1 - u_0_1 + u_0_5 >= -190
 GETOUT_0_5_2#98:                - 200 x_0_5_2 - u_0_2 + u_0_5 >= -190
 GETOUT_0_5_3#99:                - 200 x_0_5_3 - u_0_3 + u_0_5 >= -190
 GETOUT_0_5_4#100:               - 200 x_0_5_4 - u_0_4 + u_0_5 >= -190
 GETOUT_0_5_6#101:               - 200 x_0_5_6 + u_0_5 - u_0_6 >= -190
 GETOUT_0_5_7#102:               - 200 x_0_5_7 + u_0_5 - u_0_7 >= -190
 GETOUT_0_5_8#103:               - 200 x_0_5_8 + u_0_5 - u_0_8 >= -190
 GETOUT_0_5_9#104:               - 200 x_0_5_9 + u_0_5 - u_0_9 >= -190
 GETOUT_0_5_10#105:              - 200 x_0_5_10 + u_0_5 - u_0_10 >= -190
 GETOUT_0_5_11#106:              - 200 x_0_5_11 + u_0_5 - u_0_11 >= -190
 GETOUT_0_6_0#107:               - 200 x_0_6_0 - u_0_0 + u_0_6 >= -160
 GETOUT_0_6_1#108:               - 200 x_0_6_1 - u_0_1 + u_0_6 >= -160
 GETOUT_0_6_2#109:               - 200 x_0_6_2 - u_0_2 + u_0_6 >= -160
 GETOUT_0_6_3#110:               - 200 x_0_6_3 - u_0_3 + u_0_6 >= -160
 GETOUT_0_6_4#111:               - 200 x_0_6_4 - u_0_4 + u_0_6 >= -160
 GETOUT_0_6_5#112:               - 200 x_0_6_5 - u_0_5 + u_0_6 >= -160
 GETOUT_0_6_7#113:               - 200 x_0_6_7 + u_0_6 - u_0_7 >= -160
 GETOUT_0_6_8#114:               - 200 x_0_6_8 + u_0_6 - u_0_8 >= -160
 GETOUT_0_6_9#115:               - 200 x_0_6_9 + u_0_6 - u_0_9 >= -160
 GETOUT_0_6_10#116:              - 200 x_0_6_10 + u_0_6 - u_0_10 >= -160
 GETOUT_0_6_11#117:              - 200 x_0_6_11 + u_0_6 - u_0_11 >= -160
 GETOUT_0_7_0#118:               - 200 x_0_7_0 - u_0_0 + u_0_7 >= -190
 GETOUT_0_7_1#119:               - 200 x_0_7_1 - u_0_1 + u_0_7 >= -190
 GETOUT_0_7_2#120:               - 200 x_0_7_2 - u_0_2 + u_0_7 >= -190
 GETOUT_0_7_3#121:               - 200 x_0_7_3 - u_0_3 + u_0_7 >= -190
 GETOUT_0_7_4#122:               - 200 x_0_7_4 - u_0_4 + u_0_7 >= -190
 GETOUT_0_7_5#123:               - 200 x_0_7_5 - u_0_5 + u_0_7 >= -190
 GETOUT_0_7_6#124:               - 200 x_0_7_6 - u_0_6 + u_0_7 >= -190
 GETOUT_0_7_8#125:               - 200 x_0_7_8 + u_0_7 - u_0_8 >= -190
 GETOUT_0_7_9#126:               - 200 x_0_7_9 + u_0_7 - u_0_9 >= -190
 GETOUT_0_7_10#127:              - 200 x_0_7_10 + u_0_7 - u_0_10 >= -190
 GETOUT_0_7_11#128:              - 200 x_0_7_11 + u_0_7 - u_0_11 >= -190
 GETOUT_0_8_0#129:               - 200 x_0_8_0 - u_0_0 + u_0_8 >= -190
 GETOUT_0_8_1#130:               - 200 x_0_8_1 - u_0_1 + u_0_8 >= -190
 GETOUT_0_8_2#131:               - 200 x_0_8_2 - u_0_2 + u_0_8 >= -190
 GETOUT_0_8_3#132:               - 200 x_0_8_3 - u_0_3 + u_0_8 >= -190
 GETOUT_0_8_4#133:               - 200 x_0_8_4 - u_0_4 + u_0_8 >= -190
 GETOUT_0_8_5#134:               - 200 x_0_8_5 - u_0_5 + u_0_8 >= -190
 GETOUT_0_8_6#135:               - 200 x_0_8_6 - u_0_6 + u_0_8 >= -190
 GETOUT_0_8_7#136:               - 200 x_0_8_7 - u_0_7 + u_0_8 >= -190
 GETOUT_0_8_9#137:               - 200 x_0_8_9 + u_0_8 - u_0_9 >= -190
 GETOUT_0_8_10#138:              - 200 x_0_8_10 + u_0_8 - u_0_10 >= -190
 GETOUT_0_8_11#139:              - 200 x_0_8_11 + u_0_8 - u_0_11 >= -190
 GETOUT_0_9_0#140:               - 200 x_0_9_0 - u_0_0 + u_0_9 >= -180
 GETOUT_0_9_1#141:               - 200 x_0_9_1 - u_0_1 + u_0_9 >= -180
 GETOUT_0_9_2#142:               - 200 x_0_9_2 - u_0_2 + u_0_9 >= -180
 GETOUT_0_9_3#143:               - 200 x_0_9_3 - u_0_3 + u_0_9 >= -180
 GETOUT_0_9_4#144:               - 200 x_0_9_4 - u_0_4 + u_0_9 >= -180
 GETOUT_0_9_5#145:               - 200 x_0_9_5 - u_0_5 + u_0_9 >= -180
 GETOUT_0_9_6#146:               - 200 x_0_9_6 - u_0_6 + u_0_9 >= -180
 GETOUT_0_9_7#147:               - 200 x_0_9_7 - u_0_7 + u_0_9 >= -180
 GETOUT_0_9_8#148:               - 200 x_0_9_8 - u_0_8 + u_0_9 >= -180
 GETOUT_0_9_10#149:              - 200 x_0_9_10 + u_0_9 - u_0_10 >= -180
 GETOUT_0_9_11#150:              - 200 x_0_9_11 + u_0_9 - u_0_11 >= -180
 GETOUT_0_10_0#151:              - 200 x_0_10_0 - u_0_0 + u_0_10 >= -190
 GETOUT_0_10_1#152:              - 200 x_0_10_1 - u_0_1 + u_0_10 >= -190
 GETOUT_0_10_2#153:              - 200 x_0_10_2 - u_0_2 + u_0_10 >= -190
 GETOUT_0_10_3#154:              - 200 x_0_10_3 - u_0_3 + u_0_10 >= -190
 GETOUT_0_10_4#155:              - 200 x_0_10_4 - u_0_4 + u_0_10 >= -190
 GETOUT_0_10_5#156:              - 200 x_0_10_5 - u_0_5 + u_0_10 >= -190
 GETOUT_0_10_6#157:              - 200 x_0_10_6 - u_0_6 + u_0_10 >= -190
 GETOUT_0_10_7#158:              - 200 x_0_10_7 - u_0_7 + u_0_10 >= -190
 GETOUT_0_10_8#159:              - 200 x_0_10_8 - u_0_8 + u_0_10 >= -190
 GETOUT_0_10_9#160:              - 200 x_0_10_9 - u_0_9 + u_0_10 >= -190
 GETOUT_0_10_11#161:             - 200 x_0_10_11 + u_0_10 - u_0_11 >= -190
 GETOUT_0_11_0#162:              - 200 x_0_11_0 - u_0_0 + u_0_11 >= -190
 GETOUT_0_11_1#163:              - 200 x_0_11_1 - u_0_1 + u_0_11 >= -190
 GETOUT_0_11_2#164:              - 200 x_0_11_2 - u_0_2 + u_0_11 >= -190
 GETOUT_0_11_3#165:              - 200 x_0_11_3 - u_0_3 + u_0_11 >= -190
 GETOUT_0_11_4#166:              - 200 x_0_11_4 - u_0_4 + u_0_11 >= -190
 GETOUT_0_11_5#167:              - 200 x_0_11_5 - u_0_5 + u_0_11 >= -190
 GETOUT_0_11_6#168:              - 200 x_0_11_6 - u_0_6 + u_0_11 >= -190
 GETOUT_0_11_7#169:              - 200 x_0_11_7 - u_0_7 + u_0_11 >= -190
 GETOUT_0_11_8#170:              - 200 x_0_11_8 - u_0_8 + u_0_11 >= -190
 GETOUT_0_11_9#171:              - 200 x_0_11_9 - u_0_9 + u_0_11 >= -190
 GETOUT_0_11_10#172:             - 200 x_0_11_10 - u_0_10 + u_0_11 >= -190
 fluxo_veiculo_0_da_entrega_2#173: z_0_2 + y_0_2  = 1
 fluxo_veiculo_0_da_entrega_3#174: z_0_3 + y_0_3  = 1
 fluxo_veiculo_0_da_entrega_4#175: z_0_4 + y_0_4  = 1
 fluxo_veiculo_0_da_entrega_1#176: z_0_1 + y_0_1  = 1
Bounds
      x_0_0_0 = 0
      x_0_0_1 = 0
      x_0_0_2 = 1
      x_0_0_3 = 0
      x_0_0_4 = 0
      x_0_0_5 = 0
      x_0_0_6 = 0
      x_0_0_7 = 0
      x_0_0_8 = 0
      x_0_0_9 = 0
      x_0_0_10 = 0
      x_0_0_11 = 0
 0 <= x_0_1_0 <= 1
      x_0_1_1 = 0
      x_0_1_2 = 0
      x_0_1_3 = 0
      x_0_1_4 = 0
 0 <= x_0_1_5 <= 1
 0 <= x_0_1_6 <= 1
 0 <= x_0_1_7 <= 1
 0 <= x_0_1_8 <= 1
 0 <= x_0_1_9 <= 1
 0 <= x_0_1_10 <= 1
 0 <= x_0_1_11 <= 1
      x_0_2_0 = 0
      x_0_2_1 = 0
      x_0_2_2 = 0
      x_0_2_3 = 1
      x_0_2_4 = 0
      x_0_2_5 = 0
      x_0_2_6 = 0
      x_0_2_7 = 0
      x_0_2_8 = 0
      x_0_2_9 = 0
      x_0_2_10 = 0
      x_0_2_11 = 0
      x_0_3_0 = 0
      x_0_3_1 = 0
      x_0_3_2 = 0
      x_0_3_3 = 0
      x_0_3_4 = 1
      x_0_3_5 = 0
      x_0_3_6 = 0
      x_0_3_7 = 0
      x_0_3_8 = 0
      x_0_3_9 = 0
      x_0_3_10 = 0
      x_0_3_11 = 0
      x_0_4_0 = 0
      x_0_4_1 = 1
      x_0_4_2 = 0
      x_0_4_3 = 0
      x_0_4_4 = 0
      x_0_4_5 = 0
      x_0_4_6 = 0
      x_0_4_7 = 0
      x_0_4_8 = 0
      x_0_4_9 = 0
      x_0_4_10 = 0
      x_0_4_11 = 0
 0 <= x_0_5_0 <= 1
      x_0_5_1 = 0
      x_0_5_2 = 0
      x_0_5_3 = 0
      x_0_5_4 = 0
      x_0_5_5 = 0
 0 <= x_0_5_6 <= 1
 0 <= x_0_5_7 <= 1
 0 <= x_0_5_8 <= 1
 0 <= x_0_5_9 <= 1
 0 <= x_0_5_10 <= 1
 0 <= x_0_5_11 <= 1
 0 <= x_0_6_0 <= 1
      x_0_6_1 = 0
      x_0_6_2 = 0
      x_0_6_3 = 0
      x_0_6_4 = 0
 0 <= x_0_6_5 <= 1
      x_0_6_6 = 0
 0 <= x_0_6_7 <= 1
 0 <= x_0_6_8 <= 1
 0 <= x_0_6_9 <= 1
 0 <= x_0_6_10 <= 1
 0 <= x_0_6_11 <= 1
 0 <= x_0_7_0 <= 1
      x_0_7_1 = 0
      x_0_7_2 = 0
      x_0_7_3 = 0
      x_0_7_4 = 0
 0 <= x_0_7_5 <= 1
 0 <= x_0_7_6 <= 1
      x_0_7_7 = 0
 0 <= x_0_7_8 <= 1
 0 <= x_0_7_9 <= 1
 0 <= x_0_7_10 <= 1
 0 <= x_0_7_11 <= 1
 0 <= x_0_8_0 <= 1
      x_0_8_1 = 0
      x_0_8_2 = 0
      x_0_8_3 = 0
      x_0_8_4 = 0
 0 <= x_0_8_5 <= 1
 0 <= x_0_8_6 <= 1
 0 <= x_0_8_7 <= 1
      x_0_8_8 = 0
 0 <= x_0_8_9 <= 1
 0 <= x_0_8_10 <= 1
 0 <= x_0_8_11 <= 1
 0 <= x_0_9_0 <= 1
      x_0_9_1 = 0
      x_0_9_2 = 0
      x_0_9_3 = 0
      x_0_9_4 = 0
 0 <= x_0_9_5 <= 1
 0 <= x_0_9_6 <= 1
 0 <= x_0_9_7 <= 1
 0 <= x_0_9_8 <= 1
      x_0_9_9 = 0
 0 <= x_0_9_10 <= 1
 0 <= x_0_9_11 <= 1
 0 <= x_0_10_0 <= 1
      x_0_10_1 = 0
      x_0_10_2 = 0
      x_0_10_3 = 0
      x_0_10_4 = 0
 0 <= x_0_10_5 <= 1
 0 <= x_0_10_6 <= 1
 0 <= x_0_10_7 <= 1
 0 <= x_0_10_8 <= 1
 0 <= x_0_10_9 <= 1
      x_0_10_10 = 0
 0 <= x_0_10_11 <= 1
 0 <= x_0_11_0 <= 1
      x_0_11_1 = 0
      x_0_11_2 = 0
      x_0_11_3 = 0
      x_0_11_4 = 0
 0 <= x_0_11_5 <= 1
 0 <= x_0_11_6 <= 1
 0 <= x_0_11_7 <= 1
 0 <= x_0_11_8 <= 1
 0 <= x_0_11_9 <= 1
 0 <= x_0_11_10 <= 1
      x_0_11_11 = 0
 0 <= z_0_1 <= 1
      y_0_1 = 0
      z_0_2 = 1
      y_0_2 = 0
      z_0_3 = 1
      y_0_3 = 0
      z_0_4 = 1
      y_0_4 = 0
 0 <= z_0_5 <= 1
 0 <= y_0_5 <= 1
 0 <= z_0_6 <= 1
 0 <= y_0_6 <= 1
 0 <= z_0_7 <= 1
 0 <= y_0_7 <= 1
 0 <= z_0_8 <= 1
 0 <= y_0_8 <= 1
 0 <= z_0_9 <= 1
 0 <= y_0_9 <= 1
 0 <= z_0_10 <= 1
 0 <= y_0_10 <= 1
 0 <= z_0_11 <= 1
 0 <= y_0_11 <= 1
      z_0_0 = 1
 0 <= u_0_1 <= 200
 0 <= u_0_0 <= 200
 0 <= u_0_2 <= 200
 0 <= u_0_3 <= 200
 0 <= u_0_4 <= 200
 0 <= u_0_5 <= 200
 0 <= u_0_6 <= 200
 0 <= u_0_7 <= 200
 0 <= u_0_8 <= 200
 0 <= u_0_9 <= 200
 0 <= u_0_10 <= 200
 0 <= u_0_11 <= 200
Binaries
 x_0_0_0  x_0_0_1  x_0_0_2  x_0_0_3  x_0_0_4  x_0_0_5  x_0_0_6  x_0_0_7 
 x_0_0_8  x_0_0_9  x_0_0_10  x_0_0_11  x_0_1_0  x_0_1_1  x_0_1_2  x_0_1_3 
 x_0_1_4  x_0_1_5  x_0_1_6  x_0_1_7  x_0_1_8  x_0_1_9  x_0_1_10  x_0_1_11 
 x_0_2_0  x_0_2_1  x_0_2_2  x_0_2_3  x_0_2_4  x_0_2_5  x_0_2_6  x_0_2_7 
 x_0_2_8  x_0_2_9  x_0_2_10  x_0_2_11  x_0_3_0  x_0_3_1  x_0_3_2  x_0_3_3 
 x_0_3_4  x_0_3_5  x_0_3_6  x_0_3_7  x_0_3_8  x_0_3_9  x_0_3_10  x_0_3_11 
 x_0_4_0  x_0_4_1  x_0_4_2  x_0_4_3  x_0_4_4  x_0_4_5  x_0_4_6  x_0_4_7 
 x_0_4_8  x_0_4_9  x_0_4_10  x_0_4_11  z_0_1  y_0_1  z_0_2  y_0_2  z_0_3 
 y_0_3  z_0_4  y_0_4  z_0_5  y_0_5  z_0_6  y_0_6  z_0_7  y_0_7  z_0_8  y_0_8 
 z_0_9  y_0_9  z_0_10  y_0_10  z_0_11  y_0_11  z_0_0 
End
